NAME : cgl_17.4422.tour
COMMENT : Length = 4422
COMMENT : Found by LKH-3 [Keld Helsgaun] Fri Nov  8 17:38:18 2024
TYPE : TOUR
DIMENSION : 18
TOUR_SECTION
18
3
1
2
4
5
6
7
8
17
12
10
9
13
11
14
15
16
-1
EOF
